bench/ls/entl/bolognesa-19-e01.tptp.smt2
(set-logic QF_S)
(set-info :source |
A. Rybalchenko and J. A. Navarro Pérez.
[Separation Logic + Superposition Calculus = Heap Theorem Prover]
[PLDI 2011]
http://navarroj.com/research/papers.html#pldi11
|)
(set-info :smt-lib-version 2.0)
(set-info :category "random") 
(set-info :status unknown)
(set-info :version 2014-05-22)

(set-logic QF_NOLL)

(declare-sort Sll_t 0)

(declare-fun f () (Field Sll_t Sll_t))

(define-fun ls ((?in Sll_t) (?out Sll_t)) Space
(tospace (or (= ?in ?out)
(exists ((?u Sll_t))
(and (distinct ?in ?out) (tobool
(ssep (pto ?in (ref f ?u)) (ls ?u ?out)
)))))))

(declare-fun nil () Sll_t)

(declare-fun x_emp () Sll_t)
(declare-fun y_emp () Sll_t)
(declare-fun z_emp () Sll_t)
(declare-fun t_emp () Sll_t)
(declare-fun x0 () Sll_t)
(declare-fun x1 () Sll_t)
(declare-fun x2 () Sll_t)
(declare-fun x3 () Sll_t)
(declare-fun x4 () Sll_t)
(declare-fun x5 () Sll_t)
(declare-fun x6 () Sll_t)
(declare-fun x7 () Sll_t)
(declare-fun x8 () Sll_t)
(declare-fun x9 () Sll_t)
(declare-fun x10 () Sll_t)
(declare-fun x11 () Sll_t)
(declare-fun x12 () Sll_t)
(declare-fun x13 () Sll_t)
(declare-fun x14 () Sll_t)
(declare-fun x15 () Sll_t)
(declare-fun x16 () Sll_t)
(declare-fun x17 () Sll_t)
(declare-fun x18 () Sll_t)
(declare-fun x19 () Sll_t)
(declare-fun x20 () Sll_t)
(declare-fun x21 () Sll_t)
(declare-fun x22 () Sll_t)
(declare-fun x23 () Sll_t)
(assert
  (and 
    (= nil nil)
    (tobool  (ssep  (ls x6 x15 ) (ssep  (ls x4 x2 ) (ssep  (pto x19  (ref f x13 ) ) (ssep  (pto x8  (ref f x9 ) ) (ssep  (pto x5  (ref f x2 ) ) (ssep  (pto x15  (ref f x13 ) ) (ssep  (pto x3  (ref f x4 ) ) (ssep  (pto x11  (ref f x15 ) ) (ssep  (pto x16  (ref f x5 ) ) (ssep  (pto x18  (ref f x4 ) ) (ssep  (pto x9  (ref f x1 ) ) (ssep  (pto x2  (ref f x8 ) ) (ssep  (pto x17  (ref f x2 ) ) (ssep  (ls x1 x3 ) (ssep  (ls x14 x7 ) (ssep  (pto x10  (ref f x1 ) ) (ssep  (pto x7  (ref f x18 ) ) (ssep  (pto x12  (ref f x13 ) ) (ssep  (ls x13 x9 )(ssep (pto x_emp (ref f y_emp)) (pto z_emp (ref f t_emp)))))))))))))))))))))))
  )
)
(assert
  (not
        (tobool  (ssep  (ls x10 x1 ) (ssep  (ls x11 x15 ) (ssep  (ls x14 x18 ) (ssep  (ls x18 x4 ) (ssep  (ls x4 x2 ) (ssep  (ls x6 x13 ) (ssep  (ls x19 x13 ) (ssep  (ls x17 x2 ) (ssep  (ls x12 x9 ) (ssep  (ls x16 x4 )(ssep (pto x_emp (ref f y_emp)) (pto z_emp (ref f t_emp))))))))))))))
  ))

(check-sat)
